p tw 280 456
1 2
1 3
1 233
2 4
2 231
3 4
3 230
4 230
5 6
5 8
5 222
6 7
6 221
7 8
7 224
8 223
9 11
9 16
9 17
10 11
10 15
10 25
11 15
12 16
12 24
12 25
12 49
13 14
13 66
13 124
14 55
14 56
15 25
16 17
17 18
18 19
18 23
19 23
19 26
20 21
20 36
20 37
21 22
21 39
22 23
22 26
24 36
24 48
26 29
27 28
27 29
27 40
28 31
28 34
29 39
30 31
30 32
30 35
31 32
32 35
32 40
33 34
33 35
33 37
34 41
34 227
36 41
36 79
37 38
38 39
38 40
41 226
41 228
42 43
42 50
42 54
43 44
43 51
44 45
44 51
45 46
45 52
46 47
46 53
47 48
47 83
48 80
48 83
49 50
49 55
50 55
51 52
52 54
53 54
53 57
53 65
56 57
56 58
56 66
57 59
58 59
58 62
59 61
59 63
60 61
60 62
60 75
61 67
62 66
63 64
63 67
64 65
64 68
65 82
67 68
67 97
68 84
69 70
69 78
69 132
70 71
70 131
70 142
71 72
71 139
72 73
72 141
73 74
73 141
74 97
74 139
75 76
75 106
76 77
76 105
76 129
77 78
77 134
78 133
79 81
79 93
80 81
80 86
81 89
82 83
82 85
82 86
84 85
84 92
85 87
86 88
87 88
87 91
88 89
89 93
90 91
90 92
90 94
90 103
91 93
92 97
94 96
94 235
95 96
95 113
95 116
95 235
96 108
96 117
97 101
98 99
98 120
98 138
99 100
99 118
100 101
100 107
101 104
102 103
102 104
102 112
103 108
103 111
104 107
105 106
105 124
105 128
106 124
107 112
107 118
108 110
109 110
109 111
109 119
109 122
110 117
111 112
112 119
113 114
113 177
113 226
114 115
114 236
115 226
115 237
116 117
116 123
118 119
118 120
119 121
120 121
121 122
122 147
123 160
123 177
125 126
125 127
125 130
126 127
126 133
127 128
127 134
128 129
129 134
130 135
130 196
131 132
131 150
131 195
132 133
133 134
135 136
135 203
136 137
136 198
136 200
137 196
137 197
138 140
138 144
139 140
139 141
140 142
142 145
142 150
143 144
143 145
143 156
144 148
145 150
146 147
146 149
146 166
146 171
147 173
148 149
148 157
149 159
151 152
151 153
151 209
152 155
152 202
153 154
153 194
154 155
154 195
155 199
156 157
156 169
157 158
158 159
158 169
159 165
160 164
160 174
160 255
161 162
161 172
161 173
161 180
162 163
162 253
163 164
163 252
164 254
165 166
165 168
166 170
167 168
167 169
167 182
167 194
168 181
170 171
170 178
171 172
172 173
172 178
174 175
174 257
175 176
175 257
176 259
176 270
177 234
177 241
178 180
179 180
179 181
179 184
179 253
181 182
182 183
182 184
183 184
183 188
184 192
185 186
185 212
185 256
185 260
186 187
186 190
187 188
187 189
188 193
189 190
189 193
190 191
191 192
191 252
191 256
192 193
192 253
194 210
194 211
195 197
195 198
196 197
198 199
199 200
199 202
200 201
200 203
201 202
201 204
202 207
203 204
204 205
205 206
205 215
205 219
206 207
206 213
207 208
208 209
208 213
209 210
210 211
210 214
211 212
211 217
212 218
213 214
213 215
214 216
214 217
215 216
215 219
216 222
216 223
217 218
217 223
218 223
219 220
220 221
220 224
221 222
224 271
225 236
225 237
225 239
226 235
227 228
227 229
228 229
229 230
229 231
231 238
232 233
232 238
232 243
232 245
232 246
233 242
234 240
234 264
236 237
238 239
239 240
240 245
241 262
241 263
242 243
242 251
243 249
243 251
244 245
244 246
244 264
246 247
246 266
247 248
247 267
248 249
248 250
249 250
250 251
252 254
254 255
254 256
255 257
255 259
256 258
258 259
258 260
259 261
260 261
261 271
262 263
262 270
263 264
265 266
265 267
265 269
266 267
268 269
268 270
268 272
269 272
270 271
271 275
271 280
272 274
272 276
273 274
273 275
273 278
274 277
275 279
276 277
276 280
277 278
278 279
279 280
